1-1 1
1-1057 1
1-1079 1
1-1202 1
1-1204 1
1-1234 1
1-1295 1
1-1317 1
1-1368 1
1-162 1
1-226 1
1-236 1
1-277 1
1-29 1
1-307 1
1-309 1
1-320 1
1-373 1
1-39 1
1-429 1
1-520 1
1-535 1
1-537 1
1-568 1
1-607 1
1-741 1
1-806 1
1-810 1
1-876 1
1-92 1
1-979 1
1-992 1
10-10 10
10-1203 10
10-1258 10
10-1264 10
10-133 10
10-1345 10
10-1362 10
10-1364 10
10-139 10
10-145 10
10-171 10
10-237 10
10-271 10
10-459 10
10-585 10
10-830 10
10-852 10
10-974 10
11-11 11
11-115 11
11-1322 11
11-1330 11
11-15 11
11-321 11
11-394 11
11-42 11
11-450 11
11-487 11
11-519 11
11-532 11
11-627 11
11-738 11
11-751 11
11-812 11
11-856 11
11-861 11
11-954 11
11-989 11
12-1063 12
12-12 12
12-198 12
12-202 12
12-30 12
12-370 12
12-375 12
12-416 12
12-464 12
12-496 12
12-564 12
12-658 12
12-937 12
12-950 12
12-997 12
13-1151 13
13-1184 13
13-1190 13
13-1245 13
13-13 13
13-1331 13
13-244 13
13-409 13
13-410 13
13-444 13
13-469 13
13-482 13
13-51 13
13-689 13
13-747 13
13-796 13
13-835 13
13-944 13
14-1067 14
14-1259 14
14-1363 14
14-1366 14
14-14 14
14-152 14
14-261 14
14-457 14
14-479 14
14-494 14
14-579 14
14-594 14
14-646 14
14-704 14
14-801 14
15-1044 15
15-107 15
15-1194 15
15-1223 15
15-1239 15
15-1253 15
15-127 15
15-1281 15
15-1305 15
15-1349 15
15-1357 15
15-142 15
15-16 15
15-178 15
15-181 15
15-235 15
15-27 15
15-344 15
15-346 15
15-356 15
15-378 15
15-415 15
15-521 15
15-548 15
15-562 15
15-577 15
15-698 15
15-709 15
15-712 15
15-726 15
15-748 15
15-749 15
15-759 15
15-804 15
15-82 15
15-827 15
15-838 15
15-858 15
15-873 15
15-899 15
15-907 15
15-940 15
15-949 15
15-955 15
15-97 15
16-1054 16
16-1073 16
16-108 16
16-1111 16
16-1131 16
16-1167 16
16-117 16
16-1175 16
16-1177 16
16-1196 16
16-1211 16
16-1217 16
16-1219 16
16-1289 16
16-1358 16
16-17 16
16-177 16
16-18 16
16-196 16
16-256 16
16-315 16
16-351 16
16-369 16
16-423 16
16-458 16
16-512 16
16-53 16
16-572 16
16-580 16
16-581 16
16-592 16
16-637 16
16-645 16
16-673 16
16-68 16
16-687 16
16-697 16
16-851 16
16-892 16
16-919 16
16-990 16
17-1023 17
17-1060 17
17-1100 17
17-1126 17
17-119 17
17-1225 17
17-1277 17
17-1324 17
17-155 17
17-169 17
17-191 17
17-20 17
17-232 17
17-250 17
17-255 17
17-281 17
17-285 17
17-312 17
17-376 17
17-395 17
17-413 17
17-434 17
17-436 17
17-492 17
17-58 17
17-64 17
17-652 17
17-677 17
17-714 17
17-740 17
17-758 17
17-76 17
17-784 17
17-795 17
17-817 17
17-875 17
17-877 17
17-878 17
17-90 17
17-973 17
18-101 18
18-1189 18
18-1213 18
18-176 18
18-21 18
18-218 18
18-276 18
18-330 18
18-486 18
18-543 18
18-865 18
18-913 18
18-960 18
19-1029 19
19-1034 19
19-1036 19
19-1075 19
19-109 19
19-1090 19
19-1110 19
19-1117 19
19-1130 19
19-1135 19
19-1159 19
19-1162 19
19-1178 19
19-1192 19
19-121 19
19-1255 19
19-1261 19
19-1262 19
19-1282 19
19-1308 19
19-1310 19
19-1327 19
19-1335 19
19-1367 19
19-137 19
19-147 19
19-163 19
19-197 19
19-22 19
19-222 19
19-233 19
19-253 19
19-26 19
19-260 19
19-286 19
19-287 19
19-293 19
19-341 19
19-347 19
19-350 19
19-362 19
19-379 19
19-388 19
19-397 19
19-400 19
19-430 19
19-441 19
19-470 19
19-526 19
19-541 19
19-563 19
19-617 19
19-63 19
19-671 19
19-682 19
19-685 19
19-710 19
19-808 19
19-821 19
19-828 19
19-829 19
19-841 19
19-844 19
19-866 19
19-887 19
19-891 19
19-893 19
19-896 19
19-912 19
19-929 19
19-947 19
19-99 19
2-1106 2
2-1195 2
2-124 2
2-1242 2
2-1243 2
2-1276 2
2-1292 2
2-1299 2
2-1314 2
2-1323 2
2-1325 2
2-1351 2
2-167 2
2-175 2
2-182 2
2-192 2
2-2 2
2-224 2
2-242 2
2-252 2
2-294 2
2-296 2
2-300 2
2-302 2
2-368 2
2-372 2
2-374 2
2-383 2
2-499 2
2-502 2
2-546 2
2-576 2
2-61 2
2-619 2
2-62 2
2-641 2
2-644 2
2-657 2
2-662 2
2-668 2
2-727 2
2-774 2
2-775 2
2-785 2
2-79 2
2-849 2
2-872 2
2-900 2
2-951 2
20-1101 20
20-1155 20
20-1210 20
20-1251 20
20-130 20
20-1303 20
20-1318 20
20-1365 20
20-203 20
20-209 20
20-227 20
20-24 20
20-420 20
20-432 20
20-461 20
20-509 20
20-54 20
20-683 20
20-706 20
20-782 20
20-81 20
20-839 20
20-854 20
20-911 20
20-934 20
20-961 20
20-991 20
21-1089 21
21-1147 21
21-1200 21
21-1344 21
21-140 21
21-225 21
21-25 21
21-318 21
21-52 21
21-528 21
21-534 21
21-553 21
21-670 21
21-75 21
21-764 21
21-767 21
21-825 21
21-859 21
21-870 21
21-957 21
21-988 21
22-1017 22
22-1095 22
22-1326 22
22-28 22
22-348 22
22-384 22
22-398 22
22-606 22
22-715 22
22-724 22
22-754 22
23-1069 23
23-1285 23
23-31 23
23-323 23
23-435 23
23-757 23
23-91 23
23-986 23
24-1113 24
24-1138 24
24-1183 24
24-1188 24
24-1227 24
24-1229 24
24-1296 24
24-170 24
24-247 24
24-264 24
24-319 24
24-32 24
24-474 24
24-484 24
24-616 24
24-772 24
24-85 24
24-850 24
24-860 24
24-976 24
25-1193 25
25-1244 25
25-33 25
25-361 25
25-396 25
25-405 25
25-465 25
25-506 25
25-544 25
25-702 25
25-760 25
25-811 25
26-1000 26
26-1020 26
26-1118 26
26-1140 26
26-116 26
26-1304 26
26-1313 26
26-297 26
26-333 26
26-34 26
26-620 26
26-917 26
26-930 26
26-946 26
26-993 26
27-1003 27
27-1005 27
27-1006 27
27-1016 27
27-1028 27
27-1047 27
27-1072 27
27-1082 27
27-1161 27
27-1172 27
27-1182 27
27-1220 27
27-1221 27
27-1250 27
27-1265 27
27-1267 27
27-1288 27
27-1307 27
27-1328 27
27-1339 27
27-208 27
27-214 27
27-254 27
27-274 27
27-317 27
27-334 27
27-35 27
27-352 27
27-36 27
27-40 27
27-407 27
27-421 27
27-424 27
27-433 27
27-47 27
27-477 27
27-481 27
27-527 27
27-597 27
27-600 27
27-602 27
27-605 27
27-614 27
27-624 27
27-625 27
27-633 27
27-635 27
27-648 27
27-654 27
27-663 27
27-67 27
27-719 27
27-746 27
27-753 27
27-766 27
27-781 27
27-786 27
27-788 27
27-831 27
27-834 27
27-87 27
27-895 27
27-906 27
27-964 27
27-966 27
27-967 27
27-970 27
27-985 27
27-998 27
28-1092 28
28-1127 28
28-126 28
28-1352 28
28-1369 28
28-138 28
28-185 28
28-353 28
28-364 28
28-37 28
28-449 28
28-48 28
28-763 28
28-778 28
28-800 28
28-815 28
28-926 28
29-1343 29
29-187 29
29-38 29
3-102 3
3-1062 3
3-114 3
3-1181 3
3-1209 3
3-1341 3
3-251 3
3-299 3
3-3 3
3-343 3
3-630 3
3-874 3
3-943 3
3-971 3
30-1055 30
30-1132 30
30-1205 30
30-1294 30
30-1333 30
30-158 30
30-180 30
30-199 30
30-269 30
30-340 30
30-41 30
30-462 30
30-483 30
30-522 30
30-837 30
30-962 30
31-1012 31
31-1019 31
31-1021 31
31-1030 31
31-110 31
31-1156 31
31-1164 31
31-1176 31
31-1206 31
31-1241 31
31-1249 31
31-1254 31
31-1270 31
31-1320 31
31-1321 31
31-1329 31
31-1356 31
31-1370 31
31-154 31
31-220 31
31-238 31
31-263 31
31-284 31
31-298 31
31-311 31
31-336 31
31-359 31
31-367 31
31-371 31
31-391 31
31-44 31
31-445 31
31-472 31
31-559 31
31-583 31
31-610 31
31-615 31
31-636 31
31-680 31
31-686 31
31-690 31
31-739 31
31-761 31
31-770 31
31-813 31
31-882 31
31-886 31
31-920 31
31-945 31
31-952 31
31-956 31
31-968 31
31-980 31
32-100 32
32-1051 32
32-1198 32
32-1231 32
32-1233 32
32-1236 32
32-1278 32
32-1312 32
32-1316 32
32-1334 32
32-1353 32
32-179 32
32-221 32
32-278 32
32-354 32
32-365 32
32-45 32
32-538 32
32-566 32
32-584 32
32-612 32
32-659 32
32-66 32
32-732 32
32-750 32
32-803 32
32-823 32
32-867 32
32-871 32
33-1011 33
33-1039 33
33-1043 33
33-1078 33
33-1163 33
33-1180 33
33-1286 33
33-1342 33
33-148 33
33-153 33
33-173 33
33-417 33
33-437 33
33-447 33
33-46 33
33-540 33
33-56 33
33-599 33
33-608 33
33-672 33
33-700 33
33-708 33
33-773 33
33-791 33
33-901 33
33-902 33
33-93 33
33-936 33
33-975 33
34-1004 34
34-1027 34
34-1032 34
34-1096 34
34-1107 34
34-112 34
34-1149 34
34-1179 34
34-1187 34
34-1350 34
34-1361 34
34-144 34
34-160 34
34-166 34
34-219 34
34-272 34
34-283 34
34-290 34
34-357 34
34-360 34
34-377 34
34-389 34
34-402 34
34-411 34
34-442 34
34-448 34
34-480 34
34-50 34
34-513 34
34-554 34
34-666 34
34-701 34
34-723 34
34-789 34
34-816 34
34-897 34
34-977 34
34-995 34
35-1077 35
35-1119 35
35-1128 35
35-1214 35
35-161 35
35-349 35
35-366 35
35-55 35
35-560 35
35-918 35
36-1116 36
36-1125 36
36-1332 36
36-136 36
36-468 36
36-478 36
36-501 36
36-57 36
36-613 36
36-729 36
36-756 36
36-863 36
36-928 36
36-958 36
37-1008 37
37-1040 37
37-1045 37
37-1058 37
37-1103 37
37-1122 37
37-1158 37
37-1201 37
37-1273 37
37-1274 37
37-128 37
37-1301 37
37-1302 37
37-1340 37
37-1348 37
37-143 37
37-188 37
37-204 37
37-207 37
37-210 37
37-212 37
37-215 37
37-266 37
37-282 37
37-337 37
37-425 37
37-443 37
37-456 37
37-505 37
37-507 37
37-552 37
37-557 37
37-60 37
37-618 37
37-628 37
37-639 37
37-649 37
37-688 37
37-692 37
37-705 37
37-707 37
37-733 37
37-762 37
37-794 37
37-814 37
37-826 37
37-843 37
37-847 37
37-868 37
37-88 37
37-932 37
37-96 37
37-969 37
37-982 37
37-987 37
37-999 37
38-1014 38
38-1042 38
38-1049 38
38-1108 38
38-1115 38
38-1124 38
38-1146 38
38-1228 38
38-1283 38
38-1315 38
38-206 38
38-239 38
38-258 38
38-295 38
38-303 38
38-381 38
38-412 38
38-418 38
38-419 38
38-427 38
38-453 38
38-508 38
38-523 38
38-555 38
38-595 38
38-604 38
38-65 38
38-699 38
38-720 38
38-737 38
38-743 38
38-765 38
38-790 38
38-802 38
38-879 38
38-984 38
39-1013 39
39-1031 39
39-1048 39
39-1053 39
39-1160 39
39-1269 39
39-1306 39
39-1359 39
39-1360 39
39-240 39
39-289 39
39-324 39
39-329 39
39-440 39
39-460 39
39-497 39
39-510 39
39-578 39
39-70 39
39-735 39
39-848 39
39-996 39
4-1087 4
4-1215 4
4-122 4
4-1222 4
4-1268 4
4-1347 4
4-288 4
4-4 4
4-408 4
4-414 4
4-455 4
4-467 4
4-488 4
4-490 4
4-504 4
4-621 4
4-667 4
4-678 4
4-69 4
4-742 4
4-755 4
4-776 4
4-797 4
4-924 4
4-978 4
40-1056 40
40-1148 40
40-1153 40
40-1235 40
40-316 40
40-404 40
40-71 40
40-855 40
41-1010 41
41-1035 41
41-125 41
41-1291 41
41-1371 41
41-159 41
41-200 41
41-262 41
41-345 41
41-385 41
41-399 41
41-679 41
41-72 41
41-730 41
41-845 41
41-880 41
41-890 41
42-1002 42
42-105 42
42-1094 42
42-1104 42
42-111 42
42-1133 42
42-1152 42
42-1197 42
42-1230 42
42-1232 42
42-1280 42
42-1290 42
42-1297 42
42-151 42
42-165 42
42-172 42
42-186 42
42-190 42
42-231 42
42-243 42
42-246 42
42-339 42
42-390 42
42-466 42
42-473 42
42-518 42
42-558 42
42-573 42
42-640 42
42-642 42
42-73 42
42-736 42
42-752 42
42-792 42
42-799 42
42-881 42
42-883 42
42-884 42
42-910 42
43-1191 43
43-358 43
43-656 43
43-722 43
43-74 43
43-777 43
43-915 43
43-927 43
44-1136 44
44-77 44
45-401 45
45-675 45
45-78 45
45-864 45
46-1070 46
46-1266 46
46-623 46
46-80 46
46-921 46
47-83 47
48-1022 48
48-1171 48
48-1216 48
48-1248 48
48-1346 48
48-164 48
48-217 48
48-228 48
48-422 48
48-498 48
48-601 48
48-651 48
48-716 48
48-793 48
48-822 48
48-86 48
48-888 48
48-903 48
48-904 48
48-908 48
49-744 49
49-780 49
49-95 49
49-963 49
5-104 5
5-1098 5
5-1173 5
5-1311 5
5-132 5
5-23 5
5-257 5
5-314 5
5-342 5
5-355 5
5-43 5
5-452 5
5-5 5
5-551 5
5-622 5
5-643 5
5-655 5
5-728 5
5-771 5
5-89 5
5-909 5
5-938 5
5-942 5
50-1059 50
50-1071 50
50-1129 50
50-1150 50
50-118 50
50-1212 50
50-1226 50
50-149 50
50-184 50
50-194 50
50-301 50
50-439 50
50-446 50
50-500 50
50-503 50
50-514 50
50-582 50
50-603 50
50-664 50
50-696 50
50-820 50
50-846 50
50-853 50
50-914 50
50-965 50
51-1050 51
51-1083 51
51-1109 51
51-1114 51
51-1165 51
51-1186 51
51-123 51
51-134 51
51-193 51
51-259 51
51-268 51
51-327 51
51-382 51
51-428 51
51-511 51
51-517 51
51-539 51
51-665 51
51-731 51
51-783 51
51-842 51
51-925 51
52-1007 52
52-1257 52
52-129 52
52-305 52
52-322 52
52-326 52
52-363 52
52-694 52
52-857 52
53-1102 53
53-1123 53
53-135 53
53-626 53
54-1041 54
54-1061 54
54-1099 54
54-1134 54
54-1143 54
54-1154 54
54-1319 54
54-146 54
54-403 54
54-475 54
54-491 54
54-525 54
54-591 54
54-598 54
54-611 54
54-629 54
54-631 54
54-711 54
54-779 54
54-836 54
54-898 54
54-948 54
55-1018 55
55-1038 55
55-1080 55
55-1088 55
55-1137 55
55-1145 55
55-1252 55
55-1354 55
55-1355 55
55-156 55
55-157 55
55-168 55
55-201 55
55-291 55
55-310 55
55-325 55
55-529 55
55-550 55
55-556 55
55-574 55
55-632 55
55-634 55
55-650 55
55-653 55
55-681 55
55-717 55
55-734 55
55-935 55
56-1001 56
56-1033 56
56-1076 56
56-1141 56
56-1338 56
56-174 56
56-524 56
56-533 56
56-536 56
56-547 56
56-590 56
56-931 56
56-933 56
57-1065 57
57-1074 57
57-1199 57
57-195 57
57-205 57
57-275 57
57-313 57
57-471 57
57-565 57
57-596 57
57-695 57
57-745 57
57-840 57
57-889 57
57-959 57
58-211 58
58-983 58
59-213 59
59-338 59
59-489 59
59-561 59
59-567 59
59-768 59
6-1015 6
6-1025 6
6-1052 6
6-1066 6
6-1091 6
6-1097 6
6-1121 6
6-1139 6
6-1142 6
6-1144 6
6-1185 6
6-120 6
6-1208 6
6-1224 6
6-1237 6
6-1247 6
6-1256 6
6-1260 6
6-1298 6
6-1300 6
6-1336 6
6-19 6
6-229 6
6-234 6
6-241 6
6-245 6
6-270 6
6-273 6
6-304 6
6-308 6
6-380 6
6-386 6
6-392 6
6-426 6
6-463 6
6-485 6
6-49 6
6-493 6
6-516 6
6-530 6
6-531 6
6-542 6
6-569 6
6-571 6
6-586 6
6-59 6
6-6 6
6-638 6
6-647 6
6-661 6
6-684 6
6-693 6
6-703 6
6-713 6
6-721 6
6-769 6
6-84 6
6-862 6
6-894 6
6-905 6
6-923 6
6-94 6
6-98 6
60-1084 60
60-1093 60
60-1170 60
60-216 60
60-292 60
60-515 60
61-1112 61
61-1120 61
61-1168 61
61-223 61
61-332 61
61-431 61
61-438 61
61-451 61
61-589 61
61-609 61
61-669 61
61-805 61
61-809 61
61-916 61
61-972 61
61-994 61
62-1024 62
62-1064 62
62-1284 62
62-267 62
62-545 62
62-549 62
62-570 62
62-718 62
62-833 62
62-922 62
63-1037 63
63-1218 63
63-279 63
63-575 63
63-593 63
63-818 63
63-939 63
63-941 63
64-1026 64
64-660 64
65-1240 65
65-953 65
7-1009 7
7-103 7
7-1046 7
7-106 7
7-1068 7
7-1166 7
7-1169 7
7-1174 7
7-1246 7
7-1263 7
7-1271 7
7-1272 7
7-1337 7
7-141 7
7-183 7
7-230 7
7-265 7
7-306 7
7-335 7
7-393 7
7-454 7
7-476 7
7-7 7
7-725 7
7-798 7
7-819 7
7-869 7
7-981 7
8-1081 8
8-1157 8
8-1293 8
8-1309 8
8-131 8
8-248 8
8-331 8
8-387 8
8-495 8
8-787 8
8-8 8
8-832 8
8-885 8
9-1085 9
9-1086 9
9-1105 9
9-113 9
9-1207 9
9-1238 9
9-1275 9
9-1279 9
9-1287 9
9-150 9
9-189 9
9-249 9
9-280 9
9-328 9
9-406 9
9-587 9
9-588 9
9-674 9
9-676 9
9-691 9
9-807 9
9-824 9
9-9 9
